unsat
(:SPACER-conj                         54
 :SPACER-inductive-gen                62
 :SPACER-inductive-gen-weaken-fail    62
 :SPACER-inductive-gen-weaken-success 56
 :SPACER-inductive-level              52
 :SPACER-max-depth                    52
 :SPACER-max-query-lvl                52
 :SPACER-non-local-gen                1324
 :SPACER-num-active-lemmas            106
 :SPACER-num-ctp-blocked              95
 :SPACER-num-invariants               54
 :SPACER-num-is_invariant             5459
 :SPACER-num-lemmas                   1437
 :SPACER-num-pobs                     109
 :SPACER-num-propagations             2757
 :SPACER-num-queries                  1380
 :added-eqs                           8639408
 :arith-assert-diseq                  1318010
 :arith-assert-lower                  3882506
 :arith-assert-upper                  27010562
 :arith-bound-prop                    544416
 :arith-conflicts                     2970
 :arith-eq-adapter                    1272574
 :arith-fixed-eqs                     1568892
 :arith-num-rows                      992
 :arith-offset-eqs                    570676
 :arith-pivots                        231374
 :arith-row-summations                5013924
 :arith-tableau-max-columns           1814
 :arith-tableau-max-rows              992
 :conflicts                           27048
 :decisions                           11960904
 :del-clause                          3263446
 :final-checks                        8290
 :iuc_solver.num_proxies              2818
 :max-memory                          182.35
 :memory                              169.01
 :minimized-lits                      172622
 :mk-bool-var                         3545898
 :mk-clause                           3363988
 :num-allocs                          1277308142126.00
 :num-checks                          22420
 :pool_solver.checks                  11210
 :pool_solver.checks.sat              111
 :pool_solver.checks.undef            4034
 :propagations                        47656456
 :rlimit-count                        196521917
 :time                                112.24
 :time.iuc_solver.get_iuc             7.89
 :time.iuc_solver.get_iuc.hyp_reduce1 3.87
 :time.iuc_solver.get_iuc.hyp_reduce2 6.00
 :time.iuc_solver.get_iuc.learn_core  0.34
 :time.pool_solver.proof              0.92
 :time.pool_solver.smt.total          89.75
 :time.pool_solver.smt.total.sat      0.12
 :time.pool_solver.smt.total.undef    51.24
 :time.spacer.ctp                     0.01
 :time.spacer.init_rules              0.00
 :time.spacer.mbp                     0.51
 :time.spacer.solve                   112.00
 :time.spacer.solve.propagate         61.85
 :time.spacer.solve.reach             50.15
 :time.spacer.solve.reach.children    2.06
 :time.spacer.solve.reach.cluster     4.89
 :time.spacer.solve.reach.gen.global  0.51
 :time.spacer.solve.reach.gen.ind     2.09
 :time.spacer.solve.reach.is-reach    0.10)
(:max-memory   182.35
 :memory       169.01
 :num-allocs   1277308142126.00
 :rlimit-count 196521917
 :time         112.24
 :total-time   112.25)
